2 0 2 0
0 0 2 5
1 0 1 0
2 1 3 5
2 2 5 9
3 0 1 8
1 1 2 8
1 2 4 13
0 1 0 6
4 0 2 13
3 1 0 13
5 0 1 13
2 3 0 18
0 2 1 16
5 1 3 16
3 2 2 22
4 1 1 22
4 2 4 25
3 3 3 27
5 2 5 19
5 3 0 28
0 3 3 30
1 3 5 28
4 3 5 38
0 4 5 42
1 4 0 38
1 5 3 48
2 4 1 27
2 5 4 30
3 4 4 37
4 4 0 48
5 4 4 45
0 5 4 49
3 5 5 45
4 5 3 52
5 5 2 49
